c 15-node graph, 3 complete subgraphs
p sp 15 60
a 1 2
a 1 3
a 1 4
a 1 5
a 2 1 
a 2 3
a 2 4
a 2 5
a 3 1
a 3 2
a 3 4
a 3 5
a 4 1
a 4 2
a 4 3
a 4 5
a 5 1 
a 5 2
a 5 3
a 5 4
a 6 7
a 6 8
a 6 9
a 6 10
a 7 6
a 7 8
a 7 9
a 7 10
a 8 6
a 8 7
a 8 9
a 8 10
a 9 6
a 9 7
a 9 8
a 9 10
a 10 6
a 10 7
a 10 8
a 10 9
a 11 12
a 11 13
a 11 14
a 11 15
a 12 11
a 12 13
a 12 14
a 12 15
a 13 11
a 13 12
a 13 14
a 13 15
a 14 11
a 14 12
a 14 13
a 14 15
a 15 11
a 15 12
a 15 13
a 15 14

